NAME : 10_3_3_2_(19).dat
COMMENT : Henke, Speranza, Wäscher, 2015
TYPE : MCVRP
DIMENSION : 11
EDGE_WEIGHT_TYPE : DISTANCE_MATRIX
CAPACITY : 1000
VEHICLES : 3
PRODUCT TYPES : 3
COMPARTMENTS : 3
NODE_COORD_SECTION
1 50 50
2 70.77 91.76
3 86.56 99.7
4 12.56 86.27
5 67.83 9.45
6 1.88 48.3
7 68.94 97.99
8 17.22 15.3
9 37.66 88.46
10 11.03 90.11
11 50.59 31.82
DEMAND_SECTION
1 0 0 0
2 47 0 118
3 33 93 0
4 55 24 0
5 147 0 135
6 129 53 0
7 166 104 0
8 0 6 86
9 43 32 0
10 41 99 0
11 188 98 0
DEPOT_SECTION
1
EOF